p cnf 502 1190
a 298 301 305 308 313 316 320 324 330 333 337 341 346 349 353 460 361 364 368 371 376 379 383 386 392 395 399 402 407 410 492 289 7 13 24 30 2 1 40 18 6 12 35 23 29 50 45 60 55 70 65 80 75 85 90 95 105 100 110 115 120 130 125 135 140 145 150 180 162 154 158 175 167 171 190 185 200 195 209 205 219 214 224 229 234 239 245 250 254 263 259 268 273 278 283 288 294 0
d 240 30 24 0
d 284 13 24 30 7 0
d 339 250 13 7 0
d 274 460 2 0
d 356 273 278 0
d 414 283 288 294 2 492 0
d 279 7 13 24 30 0
d 3 2 0
d 4 1 2 0
d 5 1 2 0
d 8 7 0
d 9 6 7 0
d 10 6 7 0
d 11 1 2 6 7 0
d 14 13 0
d 15 12 13 0
d 16 12 13 0
d 17 1 2 6 7 12 13 0
d 19 6 12 0
d 20 18 6 12 0
d 21 18 6 12 0
d 22 1 2 6 7 12 13 18 0
d 25 24 0
d 26 23 24 0
d 27 23 24 0
d 28 1 2 6 7 12 13 18 23 24 0
d 31 30 0
d 32 29 30 0
d 33 29 30 0
d 34 1 2 6 7 12 13 18 23 24 29 30 0
d 36 23 29 0
d 37 35 23 29 0
d 38 35 23 29 0
d 39 1 2 6 7 12 13 18 23 24 29 30 35 0
d 41 18 35 0
d 42 40 18 35 0
d 43 40 18 35 0
d 44 1 2 6 7 12 13 18 23 24 29 30 35 40 0
d 46 7 12 0
d 47 45 7 12 0
d 48 45 7 12 0
d 49 1 2 6 7 12 13 18 23 24 29 30 35 40 45 0
d 51 45 35 0
d 52 50 45 35 0
d 53 50 45 35 0
d 54 1 2 6 7 12 13 18 23 24 29 30 35 40 45 50 0
d 56 6 13 0
d 57 55 6 13 0
d 58 55 6 13 0
d 59 1 2 6 7 12 13 18 23 24 29 30 35 40 45 50 55 0
d 61 55 35 0
d 62 60 55 35 0
d 63 60 55 35 0
d 64 1 2 6 7 12 13 18 23 24 29 30 35 40 45 50 55 60 0
d 66 7 13 0
d 67 65 7 13 0
d 68 65 7 13 0
d 69 1 2 6 7 12 13 18 23 24 29 30 35 40 45 50 55 60 65 0
d 71 65 35 0
d 72 70 65 35 0
d 73 70 65 35 0
d 74 1 2 6 7 12 13 18 23 24 29 30 35 40 45 50 55 60 65 70 0
d 76 24 29 0
d 77 75 24 29 0
d 78 75 24 29 0
d 79 1 2 6 7 12 13 18 23 24 29 30 35 40 45 50 55 60 65 70 75 0
d 81 18 75 0
d 82 80 18 75 0
d 83 80 18 75 0
d 84 1 2 6 7 12 13 18 23 24 29 30 35 40 45 50 55 60 65 70 75 80 0
d 86 45 75 0
d 87 85 45 75 0
d 88 85 45 75 0
d 89 1 2 6 7 12 13 18 23 24 29 30 35 40 45 50 55 60 65 70 75 80 85 0
d 91 55 75 0
d 92 90 55 75 0
d 93 90 55 75 0
d 94 1 2 6 7 12 13 18 23 24 29 30 35 40 45 50 55 60 65 70 75 80 85 90 0
d 96 65 75 0
d 97 95 65 75 0
d 98 95 65 75 0
d 99 1 2 6 7 12 13 18 23 24 29 30 35 40 45 50 55 60 65 70 75 80 85 90 95 0
d 101 23 30 0
d 102 100 23 30 0
d 103 100 23 30 0
d 104 1 2 6 7 12 13 18 23 24 29 30 35 40 45 50 55 60 65 70 75 80 85 90 95 100 0
d 106 18 100 0
d 107 105 18 100 0
d 108 105 18 100 0
d 109 1 2 6 7 12 13 18 23 24 29 30 35 40 45 50 55 60 65 70 75 80 85 90 95 100 105 0
d 111 45 100 0
d 112 110 45 100 0
d 113 110 45 100 0
d 114 1 2 6 7 12 13 18 23 24 29 30 35 40 45 50 55 60 65 70 75 80 85 90 95 100 105 110 0
d 116 55 100 0
d 117 115 55 100 0
d 118 115 55 100 0
d 119 1 2 6 7 12 13 18 23 24 29 30 35 40 45 50 55 60 65 70 75 80 85 90 95 100 105 110 115 0
d 121 65 100 0
d 122 120 65 100 0
d 123 120 65 100 0
d 124 1 2 6 7 12 13 18 23 24 29 30 35 40 45 50 55 60 65 70 75 80 85 90 95 100 105 110 115 120 0
d 126 24 30 0
d 127 125 24 30 0
d 128 125 24 30 0
d 129 1 2 6 7 12 13 18 23 24 29 30 35 40 45 50 55 60 65 70 75 80 85 90 95 100 105 110 115 120 125 0
d 131 18 125 0
d 132 130 18 125 0
d 133 130 18 125 0
d 134 1 2 6 7 12 13 18 23 24 29 30 35 40 45 50 55 60 65 70 75 80 85 90 95 100 105 110 115 120 125 130 0
d 136 45 125 0
d 137 135 45 125 0
d 138 135 45 125 0
d 139 1 2 6 7 12 13 18 23 24 29 30 35 40 45 50 55 60 65 70 75 80 85 90 95 100 105 110 115 120 125 130 135 0
d 141 55 125 0
d 142 140 55 125 0
d 143 140 55 125 0
d 144 1 2 6 7 12 13 18 23 24 29 30 35 40 45 50 55 60 65 70 75 80 85 90 95 100 105 110 115 120 125 130 135 140 0
d 146 65 125 0
d 147 145 65 125 0
d 148 145 65 125 0
d 149 1 2 6 7 12 13 18 23 24 29 30 35 40 45 50 55 60 65 70 75 80 85 90 95 100 105 110 115 120 125 130 135 140 145 0
d 151 150 2 0
d 152 150 2 0
d 153 1 2 6 7 12 13 18 23 24 29 30 35 40 45 50 55 60 65 70 75 80 85 90 95 100 105 110 115 120 125 130 135 140 145 150 0
d 155 154 7 0
d 156 154 7 0
d 157 1 2 6 7 12 13 18 23 24 29 30 35 40 45 50 55 60 65 70 75 80 85 90 95 100 105 110 115 120 125 130 135 140 145 150 154 0
d 159 158 13 0
d 160 158 13 0
d 161 1 2 6 7 12 13 18 23 24 29 30 35 40 45 50 55 60 65 70 75 80 85 90 95 100 105 110 115 120 125 130 135 140 145 150 154 158 0
d 163 154 158 0
d 164 162 154 158 0
d 165 162 154 158 0
d 166 1 2 6 7 12 13 18 23 24 29 30 35 40 45 50 55 60 65 70 75 80 85 90 95 100 105 110 115 120 125 130 135 140 145 150 154 158 162 0
d 168 167 24 0
d 169 167 24 0
d 170 1 2 6 7 12 13 18 23 24 29 30 35 40 45 50 55 60 65 70 75 80 85 90 95 100 105 110 115 120 125 130 135 140 145 150 154 158 162 167 0
d 172 171 30 0
d 173 171 30 0
d 174 1 2 6 7 12 13 18 23 24 29 30 35 40 45 50 55 60 65 70 75 80 85 90 95 100 105 110 115 120 125 130 135 140 145 150 154 158 162 167 171 0
d 176 167 171 0
d 177 175 167 171 0
d 178 175 167 171 0
d 179 1 2 6 7 12 13 18 23 24 29 30 35 40 45 50 55 60 65 70 75 80 85 90 95 100 105 110 115 120 125 130 135 140 145 150 154 158 162 167 171 175 0
d 181 162 175 0
d 182 180 162 175 0
d 183 180 162 175 0
d 184 1 2 6 7 12 13 18 23 24 29 30 35 40 45 50 55 60 65 70 75 80 85 90 95 100 105 110 115 120 125 130 135 140 145 150 154 158 162 167 171 175 180 0
d 186 7 158 0
d 187 185 7 158 0
d 188 185 7 158 0
d 189 1 2 6 7 12 13 18 23 24 29 30 35 40 45 50 55 60 65 70 75 80 85 90 95 100 105 110 115 120 125 130 135 140 145 150 154 158 162 167 171 175 180 185 0
d 191 185 175 0
d 192 190 185 175 0
d 193 190 185 175 0
d 194 1 2 6 7 12 13 18 23 24 29 30 35 40 45 50 55 60 65 70 75 80 85 90 95 100 105 110 115 120 125 130 135 140 145 150 154 158 162 167 171 175 180 185 190 0
d 196 154 13 0
d 197 195 154 13 0
d 198 195 154 13 0
d 199 1 2 6 7 12 13 18 23 24 29 30 35 40 45 50 55 60 65 70 75 80 85 90 95 100 105 110 115 120 125 130 135 140 145 150 154 158 162 167 171 175 180 185 190 195 0
d 201 195 175 0
d 202 200 195 175 0
d 203 200 195 175 0
d 204 1 2 6 7 12 13 18 23 24 29 30 35 40 45 50 55 60 65 70 75 80 85 90 95 100 105 110 115 120 125 130 135 140 145 150 154 158 162 167 171 175 180 185 190 195 200 0
d 206 205 7 13 0
d 207 205 7 13 0
d 208 1 2 6 7 12 13 18 23 24 29 30 35 40 45 50 55 60 65 70 75 80 85 90 95 100 105 110 115 120 125 130 135 140 145 150 154 158 162 167 171 175 180 185 190 195 200 205 0
d 210 205 175 0
d 211 209 205 175 0
d 212 209 205 175 0
d 213 1 2 6 7 12 13 18 23 24 29 30 35 40 45 50 55 60 65 70 75 80 85 90 95 100 105 110 115 120 125 130 135 140 145 150 154 158 162 167 171 175 180 185 190 195 200 205 209 0
d 215 24 171 0
d 216 214 24 171 0
d 217 214 24 171 0
d 218 1 2 6 7 12 13 18 23 24 29 30 35 40 45 50 55 60 65 70 75 80 85 90 95 100 105 110 115 120 125 130 135 140 145 150 154 158 162 167 171 175 180 185 190 195 200 205 209 214 0
d 220 162 214 0
d 221 219 162 214 0
d 222 219 162 214 0
d 223 1 2 6 7 12 13 18 23 24 29 30 35 40 45 50 55 60 65 70 75 80 85 90 95 100 105 110 115 120 125 130 135 140 145 150 154 158 162 167 171 175 180 185 190 195 200 205 209 214 219 0
d 225 185 214 0
d 226 224 185 214 0
d 227 224 185 214 0
d 228 1 2 6 7 12 13 18 23 24 29 30 35 40 45 50 55 60 65 70 75 80 85 90 95 100 105 110 115 120 125 130 135 140 145 150 154 158 162 167 171 175 180 185 190 195 200 205 209 214 219 224 0
d 230 195 214 0
d 231 229 195 214 0
d 232 229 195 214 0
d 233 1 2 6 7 12 13 18 23 24 29 30 35 40 45 50 55 60 65 70 75 80 85 90 95 100 105 110 115 120 125 130 135 140 145 150 154 158 162 167 171 175 180 185 190 195 200 205 209 214 219 224 229 0
d 235 205 214 0
d 236 234 205 214 0
d 237 234 205 214 0
d 238 1 2 6 7 12 13 18 23 24 29 30 35 40 45 50 55 60 65 70 75 80 85 90 95 100 105 110 115 120 125 130 135 140 145 150 154 158 162 167 171 175 180 185 190 195 200 205 209 214 219 224 229 234 0
d 241 162 30 24 0
d 242 239 162 30 24 0
d 243 239 162 30 24 0
d 244 1 2 6 7 12 13 18 23 24 29 30 35 40 45 50 55 60 65 70 75 80 85 90 95 100 105 110 115 120 125 130 135 140 145 150 154 158 162 167 171 175 180 185 190 195 200 205 209 214 219 224 229 234 239 0
d 246 185 30 24 0
d 247 245 185 30 24 0
d 248 245 185 30 24 0
d 249 1 2 6 7 12 13 18 23 24 29 30 35 40 45 50 55 60 65 70 75 80 85 90 95 100 105 110 115 120 125 130 135 140 145 150 154 158 162 167 171 175 180 185 190 195 200 205 209 214 219 224 229 234 239 245 0
d 251 250 30 24 0
d 252 250 30 24 0
d 253 1 2 6 7 12 13 18 23 24 29 30 35 40 45 50 55 60 65 70 75 80 85 90 95 100 105 110 115 120 125 130 135 140 145 150 154 158 162 167 171 175 180 185 190 195 200 205 209 214 219 224 229 234 239 245 250 0
d 255 205 30 24 0
d 256 254 205 30 24 0
d 257 254 205 30 24 0
d 258 1 2 6 7 12 13 18 23 24 29 30 35 40 45 50 55 60 65 70 75 80 85 90 95 100 105 110 115 120 125 130 135 140 145 150 154 158 162 167 171 175 180 185 190 195 200 205 209 214 219 224 229 234 239 245 250 254 0
d 260 259 24 30 0
d 261 259 24 30 0
d 262 1 2 6 7 12 13 18 23 24 29 30 35 40 45 50 55 60 65 70 75 80 85 90 95 100 105 110 115 120 125 130 135 140 145 150 154 158 162 167 171 175 180 185 190 195 200 205 209 214 219 224 229 234 239 245 250 254 259 0
d 264 162 259 0
d 265 263 162 259 0
d 266 263 162 259 0
d 267 1 2 6 7 12 13 18 23 24 29 30 35 40 45 50 55 60 65 70 75 80 85 90 95 100 105 110 115 120 125 130 135 140 145 150 154 158 162 167 171 175 180 185 190 195 200 205 209 214 219 224 229 234 239 245 250 254 259 263 0
d 269 185 259 0
d 270 268 185 259 0
d 271 268 185 259 0
d 272 1 2 6 7 12 13 18 23 24 29 30 35 40 45 50 55 60 65 70 75 80 85 90 95 100 105 110 115 120 125 130 135 140 145 150 154 158 162 167 171 175 180 185 190 195 200 205 209 214 219 224 229 234 239 245 250 254 259 263 268 0
d 275 273 460 2 0
d 276 273 460 2 0
d 277 1 2 6 7 12 13 18 23 24 29 30 35 40 45 50 55 60 65 70 75 80 85 90 95 100 105 110 115 120 125 130 135 140 145 150 154 158 162 167 171 175 180 185 190 195 200 205 209 214 219 224 229 234 239 245 250 254 259 263 268 273 460 0
d 280 278 7 13 24 30 0
d 281 278 7 13 24 30 0
d 282 1 2 6 7 12 13 18 23 24 29 30 35 40 45 50 55 60 65 70 75 80 85 90 95 100 105 110 115 120 125 130 135 140 145 150 154 158 162 167 171 175 180 185 190 195 200 205 209 214 219 224 229 234 239 245 250 254 259 263 268 273 460 278 0
d 285 283 13 24 30 7 0
d 286 283 13 24 30 7 0
d 287 1 2 6 7 12 13 18 23 24 29 30 35 40 45 50 55 60 65 70 75 80 85 90 95 100 105 110 115 120 125 130 135 140 145 150 154 158 162 167 171 175 180 185 190 195 200 205 209 214 219 224 229 234 239 245 250 254 259 263 268 273 460 278 283 0
d 290 2 289 0
d 291 288 2 289 0
d 292 288 2 289 0
d 293 1 2 6 7 12 13 18 23 24 29 30 35 40 45 50 55 60 65 70 75 80 85 90 95 100 105 110 115 120 125 130 135 140 145 150 154 158 162 167 171 175 180 185 190 195 200 205 209 214 219 224 229 234 239 245 250 254 259 263 268 273 460 278 283 288 289 0
d 295 294 7 13 24 30 0
d 296 294 7 13 24 30 0
d 297 1 2 6 7 12 13 18 23 24 29 30 35 40 45 50 55 60 65 70 75 80 85 90 95 100 105 110 115 120 125 130 135 140 145 150 154 158 162 167 171 175 180 185 190 195 200 205 209 214 219 224 229 234 239 245 250 254 259 263 268 273 460 278 283 288 289 294 0
d 299 150 298 0
d 300 150 298 180 0
d 302 150 301 0
d 303 150 301 190 0
d 304 150 298 180 301 190 0
d 306 150 305 0
d 307 150 305 200 0
d 309 150 308 0
d 310 150 308 209 0
d 311 150 305 200 308 209 0
d 312 150 298 180 301 190 305 200 308 209 0
d 314 150 313 0
d 315 150 313 219 0
d 317 150 316 0
d 318 150 316 224 0
d 319 150 313 219 316 224 0
d 321 150 320 0
d 322 150 320 0
d 323 150 320 229 0
d 325 150 324 0
d 326 150 324 234 0
d 327 150 320 229 324 234 0
d 328 150 313 219 316 224 320 229 324 234 0
d 329 150 298 180 301 190 305 200 308 209 313 219 316 224 320 229 324 234 0
d 331 150 330 0
d 332 150 330 239 0
d 334 150 333 0
d 335 150 333 245 0
d 336 150 330 239 333 245 0
d 338 150 337 0
d 340 150 337 250 13 7 0
d 342 150 341 0
d 343 150 341 254 0
d 344 150 337 250 13 7 341 254 0
d 345 150 330 239 333 245 337 250 13 7 341 254 0
d 347 150 346 0
d 348 150 346 263 0
d 350 150 349 0
d 351 150 349 268 0
d 352 150 346 263 349 268 0
d 354 150 353 0
d 355 150 353 13 24 30 7 0
d 357 150 353 13 24 30 7 273 278 0
d 358 150 346 263 349 268 353 13 24 30 7 273 278 0
d 359 150 330 239 333 245 337 250 13 7 341 254 346 263 349 268 353 24 30 273 278 0
d 360 150 298 180 301 190 305 200 308 209 313 219 316 224 320 229 324 234 330 239 333 245 337 250 13 7 341 254 346 263 349 268 353 24 30 273 278 0
d 362 2 361 0
d 363 2 361 180 0
d 365 2 364 0
d 366 2 364 190 0
d 367 2 361 180 364 190 0
d 369 2 368 0
d 370 2 368 200 0
d 372 2 371 0
d 373 2 371 209 0
d 374 2 368 200 371 209 0
d 375 2 361 180 364 190 368 200 371 209 0
d 377 2 376 0
d 378 2 376 219 0
d 380 2 379 0
d 381 2 379 224 0
d 382 2 376 219 379 224 0
d 384 2 383 0
d 385 2 383 229 0
d 387 2 386 0
d 388 2 386 234 0
d 389 2 383 229 386 234 0
d 390 2 376 219 379 224 383 229 386 234 0
d 391 2 361 180 364 190 368 200 371 209 376 219 379 224 383 229 386 234 0
d 393 2 392 0
d 394 2 392 239 0
d 396 2 395 0
d 397 2 395 245 0
d 398 2 392 239 395 245 0
d 400 2 399 0
d 401 2 399 250 13 7 0
d 403 2 402 0
d 404 2 402 254 0
d 405 2 399 250 13 7 402 254 0
d 406 2 392 239 395 245 399 250 13 7 402 254 0
d 408 2 407 0
d 409 2 407 263 0
d 411 2 410 0
d 412 2 410 268 0
d 413 2 407 263 410 268 0
d 415 2 407 263 410 268 283 288 294 492 0
d 416 2 392 239 395 245 399 250 13 7 402 254 407 263 410 268 283 288 294 492 0
d 417 2 361 180 364 190 368 200 371 209 376 219 379 224 383 229 386 234 392 239 395 245 399 250 13 7 402 254 407 263 410 268 283 288 294 492 0
d 418 150 298 180 301 190 305 200 308 209 313 219 316 224 320 229 324 234 330 239 333 245 337 250 13 7 341 254 346 263 349 268 353 24 30 273 278 2 361 364 368 371 376 379 383 386 392 395 399 402 407 410 283 288 294 492 0
d 419 1 298 0
d 420 1 298 40 0
d 421 1 301 0
d 422 1 301 50 0
d 423 1 298 40 301 50 0
d 424 1 305 0
d 425 1 305 60 0
d 426 1 308 0
d 427 1 308 70 0
d 428 1 305 60 308 70 0
d 429 1 298 40 301 50 305 60 308 70 0
d 430 1 313 0
d 431 1 313 80 0
d 432 1 316 0
d 433 1 316 85 0
d 434 1 313 80 316 85 0
d 435 1 320 0
d 436 1 320 90 0
d 437 1 324 0
d 438 1 324 95 0
d 439 1 320 90 324 95 0
d 440 1 313 80 316 85 320 90 324 95 0
d 441 1 298 40 301 50 305 60 308 70 313 80 316 85 320 90 324 95 0
d 442 1 330 0
d 443 1 330 105 0
d 444 1 333 0
d 445 1 333 110 0
d 446 1 330 105 333 110 0
d 447 1 337 0
d 448 1 337 115 0
d 449 1 341 0
d 450 1 341 120 0
d 451 1 337 115 341 120 0
d 452 1 330 105 333 110 337 115 341 120 0
d 453 1 346 0
d 454 1 346 130 0
d 455 1 349 0
d 456 1 349 135 0
d 457 1 346 130 349 135 0
d 458 1 353 0
d 459 1 353 140 0
d 461 1 460 0
d 462 1 460 145 0
d 463 1 353 140 460 145 0
d 464 1 346 130 349 135 353 140 460 145 0
d 465 1 330 105 333 110 337 115 341 120 346 130 349 135 353 140 460 145 0
d 466 1 298 40 301 50 305 60 308 70 313 80 316 85 320 90 324 95 330 105 333 110 337 115 341 120 346 130 349 135 353 140 460 145 0
d 467 2 361 40 0
d 468 2 364 50 0
d 469 2 361 40 364 50 0
d 470 2 368 60 0
d 471 2 371 70 0
d 472 2 368 60 371 70 0
d 473 2 361 40 364 50 368 60 371 70 0
d 474 2 376 80 0
d 475 2 379 85 0
d 476 2 376 80 379 85 0
d 477 2 383 90 0
d 478 2 386 95 0
d 479 2 383 90 386 95 0
d 480 2 376 80 379 85 383 90 386 95 0
d 481 2 361 40 364 50 368 60 371 70 376 80 379 85 383 90 386 95 0
d 482 2 392 105 0
d 483 2 395 110 0
d 484 2 392 105 395 110 0
d 485 2 399 115 0
d 486 2 402 120 0
d 487 2 399 115 402 120 0
d 488 2 392 105 395 110 399 115 402 120 0
d 489 2 407 130 0
d 490 2 410 135 0
d 491 2 407 130 410 135 0
d 493 2 492 0
d 494 2 492 140 0
d 495 2 289 145 0
d 496 2 492 140 289 145 0
d 497 2 407 130 410 135 492 140 289 145 0
d 498 2 392 105 395 110 399 115 402 120 407 130 410 135 492 140 289 145 0
d 499 2 361 40 364 50 368 60 371 70 376 80 379 85 383 90 386 95 392 105 395 110 399 115 402 120 407 130 410 135 492 140 289 145 0
d 500 1 298 40 301 50 305 60 308 70 313 80 316 85 320 90 324 95 330 105 333 110 337 115 341 120 346 130 349 135 353 140 460 145 2 361 364 368 371 376 379 383 386 392 395 399 402 407 410 492 289 0
d 501 150 298 180 301 190 305 200 308 209 313 219 316 224 320 229 324 234 330 239 333 245 337 250 13 7 341 254 346 263 349 268 353 24 30 273 278 2 361 364 368 371 376 379 383 386 392 395 399 402 407 410 283 288 294 492 1 40 50 60 70 80 85 90 95 105 110 115 120 130 135 140 460 145 289 0
d 502 1 2 6 7 12 13 18 23 24 29 30 35 40 45 50 55 60 65 70 75 80 85 90 95 100 105 110 115 120 125 130 135 140 145 150 154 158 162 167 171 175 180 185 190 195 200 205 209 214 219 224 229 234 239 245 250 254 259 263 268 273 460 278 283 288 289 294 298 301 305 308 313 316 320 324 330 333 337 341 346 349 353 361 364 368 371 376 379 383 386 392 395 399 402 407 410 492 0
3 2 0
-3 -2 0
4 -1 -3 0
4 1 3 0
-4 -1 3 0
-4 1 -3 0
5 4 0
-5 -4 0
8 7 0
-8 -7 0
9 -6 -8 0
9 6 8 0
-9 -6 8 0
-9 6 -8 0
10 9 0
-10 -9 0
11 -5 0
11 -10 0
-11 5 10 0
14 13 0
-14 -13 0
15 -12 -14 0
15 12 14 0
-15 -12 14 0
-15 12 -14 0
16 15 0
-16 -15 0
17 -11 0
17 -16 0
-17 11 16 0
-19 6 0
-19 12 0
19 -6 -12 0
20 -18 -19 0
20 18 19 0
-20 -18 19 0
-20 18 -19 0
21 20 0
-21 -20 0
22 -17 0
22 -21 0
-22 17 21 0
25 24 0
-25 -24 0
26 -23 -25 0
26 23 25 0
-26 -23 25 0
-26 23 -25 0
27 26 0
-27 -26 0
28 -22 0
28 -27 0
-28 22 27 0
31 30 0
-31 -30 0
32 -29 -31 0
32 29 31 0
-32 -29 31 0
-32 29 -31 0
33 32 0
-33 -32 0
34 -28 0
34 -33 0
-34 28 33 0
-36 23 0
-36 29 0
36 -23 -29 0
37 -35 -36 0
37 35 36 0
-37 -35 36 0
-37 35 -36 0
38 37 0
-38 -37 0
39 -34 0
39 -38 0
-39 34 38 0
-41 18 0
-41 35 0
41 -18 -35 0
42 -40 -41 0
42 40 41 0
-42 -40 41 0
-42 40 -41 0
43 42 0
-43 -42 0
44 -39 0
44 -43 0
-44 39 43 0
-46 7 0
-46 12 0
46 -7 -12 0
47 -45 -46 0
47 45 46 0
-47 -45 46 0
-47 45 -46 0
48 47 0
-48 -47 0
49 -44 0
49 -48 0
-49 44 48 0
-51 45 0
-51 35 0
51 -45 -35 0
52 -50 -51 0
52 50 51 0
-52 -50 51 0
-52 50 -51 0
53 52 0
-53 -52 0
54 -49 0
54 -53 0
-54 49 53 0
-56 6 0
-56 13 0
56 -6 -13 0
57 -55 -56 0
57 55 56 0
-57 -55 56 0
-57 55 -56 0
58 57 0
-58 -57 0
59 -54 0
59 -58 0
-59 54 58 0
-61 55 0
-61 35 0
61 -55 -35 0
62 -60 -61 0
62 60 61 0
-62 -60 61 0
-62 60 -61 0
63 62 0
-63 -62 0
64 -59 0
64 -63 0
-64 59 63 0
-66 7 0
-66 13 0
66 -7 -13 0
67 -65 -66 0
67 65 66 0
-67 -65 66 0
-67 65 -66 0
68 67 0
-68 -67 0
69 -64 0
69 -68 0
-69 64 68 0
-71 65 0
-71 35 0
71 -65 -35 0
72 -70 -71 0
72 70 71 0
-72 -70 71 0
-72 70 -71 0
73 72 0
-73 -72 0
74 -69 0
74 -73 0
-74 69 73 0
-76 24 0
-76 29 0
76 -24 -29 0
77 -75 -76 0
77 75 76 0
-77 -75 76 0
-77 75 -76 0
78 77 0
-78 -77 0
79 -74 0
79 -78 0
-79 74 78 0
-81 18 0
-81 75 0
81 -18 -75 0
82 -80 -81 0
82 80 81 0
-82 -80 81 0
-82 80 -81 0
83 82 0
-83 -82 0
84 -79 0
84 -83 0
-84 79 83 0
-86 45 0
-86 75 0
86 -45 -75 0
87 -85 -86 0
87 85 86 0
-87 -85 86 0
-87 85 -86 0
88 87 0
-88 -87 0
89 -84 0
89 -88 0
-89 84 88 0
-91 55 0
-91 75 0
91 -55 -75 0
92 -90 -91 0
92 90 91 0
-92 -90 91 0
-92 90 -91 0
93 92 0
-93 -92 0
94 -89 0
94 -93 0
-94 89 93 0
-96 65 0
-96 75 0
96 -65 -75 0
97 -95 -96 0
97 95 96 0
-97 -95 96 0
-97 95 -96 0
98 97 0
-98 -97 0
99 -94 0
99 -98 0
-99 94 98 0
-101 23 0
-101 30 0
101 -23 -30 0
102 -100 -101 0
102 100 101 0
-102 -100 101 0
-102 100 -101 0
103 102 0
-103 -102 0
104 -99 0
104 -103 0
-104 99 103 0
-106 18 0
-106 100 0
106 -18 -100 0
107 -105 -106 0
107 105 106 0
-107 -105 106 0
-107 105 -106 0
108 107 0
-108 -107 0
109 -104 0
109 -108 0
-109 104 108 0
-111 45 0
-111 100 0
111 -45 -100 0
112 -110 -111 0
112 110 111 0
-112 -110 111 0
-112 110 -111 0
113 112 0
-113 -112 0
114 -109 0
114 -113 0
-114 109 113 0
-116 55 0
-116 100 0
116 -55 -100 0
117 -115 -116 0
117 115 116 0
-117 -115 116 0
-117 115 -116 0
118 117 0
-118 -117 0
119 -114 0
119 -118 0
-119 114 118 0
-121 65 0
-121 100 0
121 -65 -100 0
122 -120 -121 0
122 120 121 0
-122 -120 121 0
-122 120 -121 0
123 122 0
-123 -122 0
124 -119 0
124 -123 0
-124 119 123 0
-126 24 0
-126 30 0
126 -24 -30 0
127 -125 -126 0
127 125 126 0
-127 -125 126 0
-127 125 -126 0
128 127 0
-128 -127 0
129 -124 0
129 -128 0
-129 124 128 0
-131 18 0
-131 125 0
131 -18 -125 0
132 -130 -131 0
132 130 131 0
-132 -130 131 0
-132 130 -131 0
133 132 0
-133 -132 0
134 -129 0
134 -133 0
-134 129 133 0
-136 45 0
-136 125 0
136 -45 -125 0
137 -135 -136 0
137 135 136 0
-137 -135 136 0
-137 135 -136 0
138 137 0
-138 -137 0
139 -134 0
139 -138 0
-139 134 138 0
-141 55 0
-141 125 0
141 -55 -125 0
142 -140 -141 0
142 140 141 0
-142 -140 141 0
-142 140 -141 0
143 142 0
-143 -142 0
144 -139 0
144 -143 0
-144 139 143 0
-146 65 0
-146 125 0
146 -65 -125 0
147 -145 -146 0
147 145 146 0
-147 -145 146 0
-147 145 -146 0
148 147 0
-148 -147 0
149 -144 0
149 -148 0
-149 144 148 0
151 -150 -3 0
151 150 3 0
-151 -150 3 0
-151 150 -3 0
152 151 0
-152 -151 0
153 -149 0
153 -152 0
-153 149 152 0
155 -154 -8 0
155 154 8 0
-155 -154 8 0
-155 154 -8 0
156 155 0
-156 -155 0
157 -153 0
157 -156 0
-157 153 156 0
159 -158 -14 0
159 158 14 0
-159 -158 14 0
-159 158 -14 0
160 159 0
-160 -159 0
161 -157 0
161 -160 0
-161 157 160 0
-163 154 0
-163 158 0
163 -154 -158 0
164 -162 -163 0
164 162 163 0
-164 -162 163 0
-164 162 -163 0
165 164 0
-165 -164 0
166 -161 0
166 -165 0
-166 161 165 0
168 -167 -25 0
168 167 25 0
-168 -167 25 0
-168 167 -25 0
169 168 0
-169 -168 0
170 -166 0
170 -169 0
-170 166 169 0
172 -171 -31 0
172 171 31 0
-172 -171 31 0
-172 171 -31 0
173 172 0
-173 -172 0
174 -170 0
174 -173 0
-174 170 173 0
-176 167 0
-176 171 0
176 -167 -171 0
177 -175 -176 0
177 175 176 0
-177 -175 176 0
-177 175 -176 0
178 177 0
-178 -177 0
179 -174 0
179 -178 0
-179 174 178 0
-181 162 0
-181 175 0
181 -162 -175 0
182 -180 -181 0
182 180 181 0
-182 -180 181 0
-182 180 -181 0
183 182 0
-183 -182 0
184 -179 0
184 -183 0
-184 179 183 0
-186 7 0
-186 158 0
186 -7 -158 0
187 -185 -186 0
187 185 186 0
-187 -185 186 0
-187 185 -186 0
188 187 0
-188 -187 0
189 -184 0
189 -188 0
-189 184 188 0
-191 185 0
-191 175 0
191 -185 -175 0
192 -190 -191 0
192 190 191 0
-192 -190 191 0
-192 190 -191 0
193 192 0
-193 -192 0
194 -189 0
194 -193 0
-194 189 193 0
-196 154 0
-196 13 0
196 -154 -13 0
197 -195 -196 0
197 195 196 0
-197 -195 196 0
-197 195 -196 0
198 197 0
-198 -197 0
199 -194 0
199 -198 0
-199 194 198 0
-201 195 0
-201 175 0
201 -195 -175 0
202 -200 -201 0
202 200 201 0
-202 -200 201 0
-202 200 -201 0
203 202 0
-203 -202 0
204 -199 0
204 -203 0
-204 199 203 0
206 -205 -66 0
206 205 66 0
-206 -205 66 0
-206 205 -66 0
207 206 0
-207 -206 0
208 -204 0
208 -207 0
-208 204 207 0
-210 205 0
-210 175 0
210 -205 -175 0
211 -209 -210 0
211 209 210 0
-211 -209 210 0
-211 209 -210 0
212 211 0
-212 -211 0
213 -208 0
213 -212 0
-213 208 212 0
-215 24 0
-215 171 0
215 -24 -171 0
216 -214 -215 0
216 214 215 0
-216 -214 215 0
-216 214 -215 0
217 216 0
-217 -216 0
218 -213 0
218 -217 0
-218 213 217 0
-220 162 0
-220 214 0
220 -162 -214 0
221 -219 -220 0
221 219 220 0
-221 -219 220 0
-221 219 -220 0
222 221 0
-222 -221 0
223 -218 0
223 -222 0
-223 218 222 0
-225 185 0
-225 214 0
225 -185 -214 0
226 -224 -225 0
226 224 225 0
-226 -224 225 0
-226 224 -225 0
227 226 0
-227 -226 0
228 -223 0
228 -227 0
-228 223 227 0
-230 195 0
-230 214 0
230 -195 -214 0
231 -229 -230 0
231 229 230 0
-231 -229 230 0
-231 229 -230 0
232 231 0
-232 -231 0
233 -228 0
233 -232 0
-233 228 232 0
-235 205 0
-235 214 0
235 -205 -214 0
236 -234 -235 0
236 234 235 0
-236 -234 235 0
-236 234 -235 0
237 236 0
-237 -236 0
238 -233 0
238 -237 0
-238 233 237 0
-241 162 0
-241 240 0
241 -162 -240 0
242 -239 -241 0
242 239 241 0
-242 -239 241 0
-242 239 -241 0
243 242 0
-243 -242 0
244 -238 0
244 -243 0
-244 238 243 0
-246 185 0
-246 240 0
246 -185 -240 0
247 -245 -246 0
247 245 246 0
-247 -245 246 0
-247 245 -246 0
248 247 0
-248 -247 0
249 -244 0
249 -248 0
-249 244 248 0
251 -250 -240 0
251 250 240 0
-251 -250 240 0
-251 250 -240 0
252 251 0
-252 -251 0
253 -249 0
253 -252 0
-253 249 252 0
-255 205 0
-255 240 0
255 -205 -240 0
256 -254 -255 0
256 254 255 0
-256 -254 255 0
-256 254 -255 0
257 256 0
-257 -256 0
258 -253 0
258 -257 0
-258 253 257 0
260 -259 -126 0
260 259 126 0
-260 -259 126 0
-260 259 -126 0
261 260 0
-261 -260 0
262 -258 0
262 -261 0
-262 258 261 0
-264 162 0
-264 259 0
264 -162 -259 0
265 -263 -264 0
265 263 264 0
-265 -263 264 0
-265 263 -264 0
266 265 0
-266 -265 0
267 -262 0
267 -266 0
-267 262 266 0
-269 185 0
-269 259 0
269 -185 -259 0
270 -268 -269 0
270 268 269 0
-270 -268 269 0
-270 268 -269 0
271 270 0
-271 -270 0
272 -267 0
272 -271 0
-272 267 271 0
275 -273 -274 0
275 273 274 0
-275 -273 274 0
-275 273 -274 0
276 275 0
-276 -275 0
277 -272 0
277 -276 0
-277 272 276 0
280 -278 -279 0
280 278 279 0
-280 -278 279 0
-280 278 -279 0
281 280 0
-281 -280 0
282 -277 0
282 -281 0
-282 277 281 0
285 -283 -284 0
285 283 284 0
-285 -283 284 0
-285 283 -284 0
286 285 0
-286 -285 0
287 -282 0
287 -286 0
-287 282 286 0
-290 2 0
-290 289 0
290 -2 -289 0
291 -288 -290 0
291 288 290 0
-291 -288 290 0
-291 288 -290 0
292 291 0
-292 -291 0
293 -287 0
293 -292 0
-293 287 292 0
295 -294 -279 0
295 294 279 0
-295 -294 279 0
-295 294 -279 0
296 295 0
-296 -295 0
297 -293 0
297 -296 0
-297 293 296 0
-299 150 0
-299 298 0
299 -150 -298 0
-300 299 0
-300 180 0
300 -299 -180 0
-302 150 0
-302 301 0
302 -150 -301 0
-303 302 0
-303 190 0
303 -302 -190 0
304 -300 0
304 -303 0
-304 300 303 0
-306 150 0
-306 305 0
306 -150 -305 0
-307 306 0
-307 200 0
307 -306 -200 0
-309 150 0
-309 308 0
309 -150 -308 0
-310 309 0
-310 209 0
310 -309 -209 0
311 -307 0
311 -310 0
-311 307 310 0
312 -304 0
312 -311 0
-312 304 311 0
-314 150 0
-314 313 0
314 -150 -313 0
-315 314 0
-315 219 0
315 -314 -219 0
-317 150 0
-317 316 0
317 -150 -316 0
-318 317 0
-318 224 0
318 -317 -224 0
319 -315 0
319 -318 0
-319 315 318 0
-321 150 0
-321 320 0
321 -150 -320 0
322 321 0
-322 -321 0
-323 322 0
-323 229 0
323 -322 -229 0
-325 150 0
-325 324 0
325 -150 -324 0
-326 325 0
-326 234 0
326 -325 -234 0
327 -323 0
327 -326 0
-327 323 326 0
328 -319 0
328 -327 0
-328 319 327 0
329 -312 0
329 -328 0
-329 312 328 0
-331 150 0
-331 330 0
331 -150 -330 0
-332 331 0
-332 239 0
332 -331 -239 0
-334 150 0
-334 333 0
334 -150 -333 0
-335 334 0
-335 245 0
335 -334 -245 0
336 -332 0
336 -335 0
-336 332 335 0
-338 150 0
-338 337 0
338 -150 -337 0
-340 338 0
-340 339 0
340 -338 -339 0
-342 150 0
-342 341 0
342 -150 -341 0
-343 342 0
-343 254 0
343 -342 -254 0
344 -340 0
344 -343 0
-344 340 343 0
345 -336 0
345 -344 0
-345 336 344 0
-347 150 0
-347 346 0
347 -150 -346 0
-348 347 0
-348 263 0
348 -347 -263 0
-350 150 0
-350 349 0
350 -150 -349 0
-351 350 0
-351 268 0
351 -350 -268 0
352 -348 0
352 -351 0
-352 348 351 0
-354 150 0
-354 353 0
354 -150 -353 0
-355 354 0
-355 284 0
355 -354 -284 0
357 -355 0
357 -356 0
-357 355 356 0
358 -352 0
358 -357 0
-358 352 357 0
359 -345 0
359 -358 0
-359 345 358 0
360 -329 0
360 -359 0
-360 329 359 0
-362 2 0
-362 361 0
362 -2 -361 0
-363 362 0
-363 180 0
363 -362 -180 0
-365 2 0
-365 364 0
365 -2 -364 0
-366 365 0
-366 190 0
366 -365 -190 0
367 -363 0
367 -366 0
-367 363 366 0
-369 2 0
-369 368 0
369 -2 -368 0
-370 369 0
-370 200 0
370 -369 -200 0
-372 2 0
-372 371 0
372 -2 -371 0
-373 372 0
-373 209 0
373 -372 -209 0
374 -370 0
374 -373 0
-374 370 373 0
375 -367 0
375 -374 0
-375 367 374 0
-377 2 0
-377 376 0
377 -2 -376 0
-378 377 0
-378 219 0
378 -377 -219 0
-380 2 0
-380 379 0
380 -2 -379 0
-381 380 0
-381 224 0
381 -380 -224 0
382 -378 0
382 -381 0
-382 378 381 0
-384 2 0
-384 383 0
384 -2 -383 0
-385 384 0
-385 229 0
385 -384 -229 0
-387 2 0
-387 386 0
387 -2 -386 0
-388 387 0
-388 234 0
388 -387 -234 0
389 -385 0
389 -388 0
-389 385 388 0
390 -382 0
390 -389 0
-390 382 389 0
391 -375 0
391 -390 0
-391 375 390 0
-393 2 0
-393 392 0
393 -2 -392 0
-394 393 0
-394 239 0
394 -393 -239 0
-396 2 0
-396 395 0
396 -2 -395 0
-397 396 0
-397 245 0
397 -396 -245 0
398 -394 0
398 -397 0
-398 394 397 0
-400 2 0
-400 399 0
400 -2 -399 0
-401 400 0
-401 339 0
401 -400 -339 0
-403 2 0
-403 402 0
403 -2 -402 0
-404 403 0
-404 254 0
404 -403 -254 0
405 -401 0
405 -404 0
-405 401 404 0
406 -398 0
406 -405 0
-406 398 405 0
-408 2 0
-408 407 0
408 -2 -407 0
-409 408 0
-409 263 0
409 -408 -263 0
-411 2 0
-411 410 0
411 -2 -410 0
-412 411 0
-412 268 0
412 -411 -268 0
413 -409 0
413 -412 0
-413 409 412 0
415 -413 0
415 -414 0
-415 413 414 0
416 -406 0
416 -415 0
-416 406 415 0
417 -391 0
417 -416 0
-417 391 416 0
418 -360 0
418 -417 0
-418 360 417 0
-419 1 0
-419 298 0
419 -1 -298 0
-420 419 0
-420 40 0
420 -419 -40 0
-421 1 0
-421 301 0
421 -1 -301 0
-422 421 0
-422 50 0
422 -421 -50 0
423 -420 0
423 -422 0
-423 420 422 0
-424 1 0
-424 305 0
424 -1 -305 0
-425 424 0
-425 60 0
425 -424 -60 0
-426 1 0
-426 308 0
426 -1 -308 0
-427 426 0
-427 70 0
427 -426 -70 0
428 -425 0
428 -427 0
-428 425 427 0
429 -423 0
429 -428 0
-429 423 428 0
-430 1 0
-430 313 0
430 -1 -313 0
-431 430 0
-431 80 0
431 -430 -80 0
-432 1 0
-432 316 0
432 -1 -316 0
-433 432 0
-433 85 0
433 -432 -85 0
434 -431 0
434 -433 0
-434 431 433 0
-435 1 0
-435 320 0
435 -1 -320 0
-436 435 0
-436 90 0
436 -435 -90 0
-437 1 0
-437 324 0
437 -1 -324 0
-438 437 0
-438 95 0
438 -437 -95 0
439 -436 0
439 -438 0
-439 436 438 0
440 -434 0
440 -439 0
-440 434 439 0
441 -429 0
441 -440 0
-441 429 440 0
-442 1 0
-442 330 0
442 -1 -330 0
-443 442 0
-443 105 0
443 -442 -105 0
-444 1 0
-444 333 0
444 -1 -333 0
-445 444 0
-445 110 0
445 -444 -110 0
446 -443 0
446 -445 0
-446 443 445 0
-447 1 0
-447 337 0
447 -1 -337 0
-448 447 0
-448 115 0
448 -447 -115 0
-449 1 0
-449 341 0
449 -1 -341 0
-450 449 0
-450 120 0
450 -449 -120 0
451 -448 0
451 -450 0
-451 448 450 0
452 -446 0
452 -451 0
-452 446 451 0
-453 1 0
-453 346 0
453 -1 -346 0
-454 453 0
-454 130 0
454 -453 -130 0
-455 1 0
-455 349 0
455 -1 -349 0
-456 455 0
-456 135 0
456 -455 -135 0
457 -454 0
457 -456 0
-457 454 456 0
-458 1 0
-458 353 0
458 -1 -353 0
-459 458 0
-459 140 0
459 -458 -140 0
-461 1 0
-461 460 0
461 -1 -460 0
-462 461 0
-462 145 0
462 -461 -145 0
463 -459 0
463 -462 0
-463 459 462 0
464 -457 0
464 -463 0
-464 457 463 0
465 -452 0
465 -464 0
-465 452 464 0
466 -441 0
466 -465 0
-466 441 465 0
-467 362 0
-467 40 0
467 -362 -40 0
-468 365 0
-468 50 0
468 -365 -50 0
469 -467 0
469 -468 0
-469 467 468 0
-470 369 0
-470 60 0
470 -369 -60 0
-471 372 0
-471 70 0
471 -372 -70 0
472 -470 0
472 -471 0
-472 470 471 0
473 -469 0
473 -472 0
-473 469 472 0
-474 377 0
-474 80 0
474 -377 -80 0
-475 380 0
-475 85 0
475 -380 -85 0
476 -474 0
476 -475 0
-476 474 475 0
-477 384 0
-477 90 0
477 -384 -90 0
-478 387 0
-478 95 0
478 -387 -95 0
479 -477 0
479 -478 0
-479 477 478 0
480 -476 0
480 -479 0
-480 476 479 0
481 -473 0
481 -480 0
-481 473 480 0
-482 393 0
-482 105 0
482 -393 -105 0
-483 396 0
-483 110 0
483 -396 -110 0
484 -482 0
484 -483 0
-484 482 483 0
-485 400 0
-485 115 0
485 -400 -115 0
-486 403 0
-486 120 0
486 -403 -120 0
487 -485 0
487 -486 0
-487 485 486 0
488 -484 0
488 -487 0
-488 484 487 0
-489 408 0
-489 130 0
489 -408 -130 0
-490 411 0
-490 135 0
490 -411 -135 0
491 -489 0
491 -490 0
-491 489 490 0
-493 2 0
-493 492 0
493 -2 -492 0
-494 493 0
-494 140 0
494 -493 -140 0
-495 290 0
-495 145 0
495 -290 -145 0
496 -494 0
496 -495 0
-496 494 495 0
497 -491 0
497 -496 0
-497 491 496 0
498 -488 0
498 -497 0
-498 488 497 0
499 -481 0
499 -498 0
-499 481 498 0
500 -466 0
500 -499 0
-500 466 499 0
501 -418 -500 0
501 418 500 0
-501 -418 500 0
-501 418 -500 0
502 -297 0
502 -501 0
-502 297 501 0
502 0
